c cksystemsgroup.github.io/unicorn
c CNF contains a total of 116 clauses.
c CNF contains a total of 74 variables.
c CNF clauses cover 1 bad states.
c Variable name mapping (33 names):
c   1: input[bit=0]
c   2: input[bit=0]
c   5: input[bit=1]
c   6: input[bit=1]
c   9: input[bit=2]
c   10: input[bit=2]
c   13: input[bit=3]
c   14: input[bit=3]
c   18: input[bit=4]
c   19: input[bit=4]
c   22: input[bit=5]
c   23: input[bit=5]
c   26: input[bit=6]
c   27: input[bit=6]
c   30: input[bit=7]
c   31: input[bit=7]
c   35: input[bit=8]
c   36: input[bit=8]
c   40: input[bit=9]
c   41: input[bit=9]
c   45: input[bit=10]
c   46: input[bit=10]
c   50: input[bit=11]
c   51: input[bit=11]
c   55: input[bit=12]
c   56: input[bit=12]
c   60: input[bit=13]
c   61: input[bit=13]
c   65: input[bit=14]
c   66: input[bit=14]
c   70: input[bit=15]
c   71: input[bit=15]
c   74: ?
p cnf 74 116
-1 -2 3 0
1 -3 0
2 -3 0
-3 -4 0
3 4 0
-5 -6 7 0
5 -7 0
6 -7 0
-4 -7 8 0
4 -8 0
7 -8 0
-9 -10 11 0
9 -11 0
10 -11 0
-8 -11 12 0
8 -12 0
11 -12 0
-13 -14 15 0
13 -15 0
14 -15 0
-15 -16 0
15 16 0
-12 -16 17 0
12 -17 0
16 -17 0
-18 -19 20 0
18 -20 0
19 -20 0
-17 -20 21 0
17 -21 0
20 -21 0
-22 -23 24 0
22 -24 0
23 -24 0
-21 -24 25 0
21 -25 0
24 -25 0
-26 -27 28 0
26 -28 0
27 -28 0
-25 -28 29 0
25 -29 0
28 -29 0
-30 -31 32 0
30 -32 0
31 -32 0
-32 -33 0
32 33 0
-29 -33 34 0
29 -34 0
33 -34 0
-35 -36 37 0
35 -37 0
36 -37 0
-37 -38 0
37 38 0
-34 -38 39 0
34 -39 0
38 -39 0
-40 -41 42 0
40 -42 0
41 -42 0
-42 -43 0
42 43 0
-39 -43 44 0
39 -44 0
43 -44 0
-45 -46 47 0
45 -47 0
46 -47 0
-47 -48 0
47 48 0
-44 -48 49 0
44 -49 0
48 -49 0
-50 -51 52 0
50 -52 0
51 -52 0
-52 -53 0
52 53 0
-49 -53 54 0
49 -54 0
53 -54 0
-55 -56 57 0
55 -57 0
56 -57 0
-57 -58 0
57 58 0
-54 -58 59 0
54 -59 0
58 -59 0
-60 -61 62 0
60 -62 0
61 -62 0
-62 -63 0
62 63 0
-59 -63 64 0
59 -64 0
63 -64 0
-65 -66 67 0
65 -67 0
66 -67 0
-67 -68 0
67 68 0
-64 -68 69 0
64 -69 0
68 -69 0
-70 -71 72 0
70 -72 0
71 -72 0
-72 -73 0
72 73 0
-69 -73 74 0
69 -74 0
73 -74 0
74 0
